WARNING: for repeatability, setting FPU to use double precision
============================[ Problem Statistics ]=============================
|                                                                             |
|  Number of variables:           100                                         |
|  Number of clauses:             449                                         |
|  Parse time:                   0.00 s                                       |
|  Eliminated clauses:           0.00 Mb                                      |
|  Simplification time:          0.00 s                                       |
|                                                                             |
============================[ Search Statistics ]==============================
| Conflicts |          ORIGINAL         |          LEARNT          | Progress |
|           |    Vars  Clauses Literals |    Limit  Clauses Lit/Cl |          |
===============================================================================
|       100 |      96      438     1332 |      160      100      6 |  0.010 % |
===============================================================================
restarts              : 2
conflicts             : 131            (44710 /sec)
decisions             : 180            (0.00 % random) (61433 /sec)
propagations          : 2893           (987372 /sec)
conflict literals     : 863            (12.47 % deleted)
Memory used           : 13.00 MB
CPU time              : 0.00293 s

SATISFIABLE
